c description: Random 3-CNF over 17 variables and 72 clauses
c generator: CNFgen (0.9.2)
c copyright: (C) 2012-2022 Massimo Lauria <massimo.lauria@uniroma1.it>
c url: https://massimolauria.net/cnfgen
c command line: cnfgen --output CNF_4.28/17_bit_72_263.cnf randkcnf 3 17 72
c
p cnf 17 72
4 -6 -10 0
2 -14 15 0
3 -10 -14 0
6 10 11 0
-10 -11 17 0
-2 -15 -16 0
-1 -11 -16 0
-2 -4 -7 0
-3 -5 -11 0
-4 10 -12 0
4 6 -15 0
6 -8 14 0
-4 -10 -12 0
1 -2 -16 0
8 13 17 0
-3 6 -16 0
8 9 14 0
-3 6 -11 0
-1 9 -17 0
-1 6 -16 0
-5 6 17 0
6 -14 -16 0
4 -12 14 0
-7 8 10 0
-1 -4 -15 0
2 -5 -9 0
9 -10 -16 0
-5 -8 17 0
2 -8 -11 0
9 -10 -14 0
-3 8 -10 0
4 -11 -12 0
-8 11 14 0
-5 7 -9 0
-2 -10 -12 0
-10 -11 14 0
-6 13 -15 0
4 13 -16 0
-1 -8 -16 0
-10 -13 -14 0
2 -7 13 0
-2 4 -13 0
-11 -16 -17 0
-10 16 -17 0
-6 -10 -11 0
3 10 -11 0
-1 15 -16 0
1 -4 15 0
-1 -2 -14 0
-5 12 17 0
-8 14 16 0
-2 -11 16 0
1 15 16 0
-2 -6 8 0
-4 -6 9 0
5 8 -15 0
-4 -6 -17 0
1 9 -11 0
5 -10 -11 0
-4 8 -16 0
-14 -15 16 0
5 6 8 0
-1 9 -13 0
10 11 -16 0
8 -9 -10 0
-1 4 17 0
-6 -11 -15 0
-7 -10 -17 0
7 10 13 0
4 -6 7 0
-1 5 -14 0
4 -5 -10 0
